Welcome to the CBC MILP Solver 
Version: 2.10.7 
Build Date: Feb 14 2022 

command line - cbc inputs/new_tr/order/default80_tiers_input.lp sec 1800 solve solu solutions/new_tr/default80_tiers_input.lp (default strategy 1)
### CoinLpIO::is_invalid_name(): Name 216 should not start with a number
### CoinLpIO::are_invalid_names(): Invalid name: vnames[7197]: 216
### CoinLpIO::readLp(): Invalid column names
Now using default column names.
seconds was changed from 1e+100 to 1800
Continuous objective value is 61440 - 20.68 seconds
Cgl0002I 5587 variables fixed
Cgl0003I 0 fixed, 1 tightened bounds, 984 strengthened rows, 4 substitutions
Cgl0003I 0 fixed, 0 tightened bounds, 52 strengthened rows, 0 substitutions
Cgl0003I 0 fixed, 0 tightened bounds, 5 strengthened rows, 0 substitutions
Cgl0004I processed model has 8363 rows, 2454 columns (2454 integer (2373 of which binary)) and 27570 elements
Cutoff increment increased from 1e-05 to 0.9999
Cbc0045I 1 integer variables out of 2454 objects (2454 integer) have cost of 1 - high priority
Cbc0045I branch on satisfied Y create fake objective Y random cost Y
Cbc0038I Initial state - 959 integers unsatisfied sum - 223.809
Cbc0038I Pass   1: (23.16 seconds) suminf.   80.52796 (728) obj. 69314.7 iterations 3351
Cbc0038I Pass   2: (23.32 seconds) suminf.   80.17818 (692) obj. 70610.1 iterations 358
Cbc0038I Pass   3: (23.37 seconds) suminf.   78.81430 (699) obj. 70636.3 iterations 96
Cbc0038I Pass   4: (23.40 seconds) suminf.   78.72592 (695) obj. 70744.4 iterations 36
Cbc0038I Pass   5: (23.45 seconds) suminf.   77.48252 (699) obj. 70632.8 iterations 109
Cbc0038I Pass   6: (23.71 seconds) suminf.   67.93500 (632) obj. 73187.5 iterations 816
Cbc0038I Pass   7: (23.78 seconds) suminf.   65.35712 (617) obj. 68628.3 iterations 146
Cbc0038I Pass   8: (23.91 seconds) suminf.   63.45703 (589) obj. 68479.3 iterations 275
Cbc0038I Pass   9: (23.95 seconds) suminf.   61.35878 (592) obj. 68338.2 iterations 55
Cbc0038I Pass  10: (23.97 seconds) suminf.   61.67379 (586) obj. 68342.6 iterations 43
Cbc0038I Pass  11: (23.98 seconds) suminf.   62.14982 (584) obj. 68342.6 iterations 9
Cbc0038I Pass  12: (24.20 seconds) suminf.   56.08469 (617) obj. 74161.8 iterations 585
Cbc0038I Pass  13: (24.22 seconds) suminf.   56.02353 (592) obj. 74153.5 iterations 35
Cbc0038I Pass  14: (24.37 seconds) suminf.   49.42293 (556) obj. 74625.2 iterations 358
Cbc0038I Pass  15: (24.46 seconds) suminf.   48.43315 (588) obj. 74586.2 iterations 186
Cbc0038I Pass  16: (24.64 seconds) suminf.   43.77580 (541) obj. 76519.8 iterations 470
Cbc0038I Pass  17: (24.69 seconds) suminf.   43.34914 (539) obj. 76288.8 iterations 138
Cbc0038I Pass  18: (24.81 seconds) suminf.   41.77168 (533) obj. 80415.8 iterations 382
Cbc0038I Pass  19: (24.87 seconds) suminf.   39.01851 (531) obj. 78850.6 iterations 172
Cbc0038I Pass  20: (24.97 seconds) suminf.   40.11689 (518) obj. 78687.9 iterations 237
Cbc0038I Pass  21: (25.01 seconds) suminf.   39.09498 (535) obj. 77140.1 iterations 128
Cbc0038I Pass  22: (25.19 seconds) suminf.   35.92333 (504) obj. 80192.4 iterations 489
Cbc0038I Pass  23: (25.22 seconds) suminf.   35.05511 (501) obj. 80148.6 iterations 71
Cbc0038I Pass  24: (25.33 seconds) suminf.   34.06245 (494) obj. 80985.6 iterations 271
Cbc0038I Pass  25: (25.37 seconds) suminf.   33.54261 (506) obj. 81003.2 iterations 112
Cbc0038I Pass  26: (25.57 seconds) suminf.   32.52558 (493) obj. 80175.8 iterations 552
Cbc0038I Pass  27: (25.63 seconds) suminf.   30.64980 (502) obj. 80123.1 iterations 148
Cbc0038I Pass  28: (25.64 seconds) suminf.   30.64797 (502) obj. 80151.7 iterations 1
Cbc0038I Pass  29: (25.79 seconds) suminf.   32.92351 (515) obj. 80158.2 iterations 353
Cbc0038I Pass  30: (25.88 seconds) suminf.   30.40532 (516) obj. 80236.2 iterations 222
Cbc0038I Pass  31: (25.90 seconds) suminf.   30.32695 (513) obj. 80236.2 iterations 35
Cbc0038I Pass  32: (25.98 seconds) suminf.   31.23211 (498) obj. 79912.7 iterations 252
Cbc0038I Pass  33: (26.04 seconds) suminf.   29.39735 (499) obj. 80211.1 iterations 155
Cbc0038I Pass  34: (26.14 seconds) suminf.   28.09298 (479) obj. 80159.8 iterations 220
Cbc0038I Pass  35: (26.18 seconds) suminf.   27.38263 (478) obj. 80238.9 iterations 118
Cbc0038I Pass  36: (26.19 seconds) suminf.   27.46264 (480) obj. 80238.7 iterations 13
Cbc0038I Pass  37: (26.33 seconds) suminf.   27.81054 (482) obj. 82038.5 iterations 433
Cbc0038I Pass  38: (26.43 seconds) suminf.   25.54746 (481) obj. 82038.2 iterations 275
Cbc0038I Pass  39: (26.57 seconds) suminf.   26.69074 (452) obj. 86320.8 iterations 425
Cbc0038I Pass  40: (26.62 seconds) suminf.   24.90867 (459) obj. 86327.2 iterations 165
Cbc0038I Pass  41: (26.63 seconds) suminf.   24.87178 (460) obj. 86327.2 iterations 6
Cbc0038I Pass  42: (26.72 seconds) suminf.   26.76328 (442) obj. 80882.5 iterations 254
Cbc0038I Pass  43: (26.77 seconds) suminf.   25.41331 (442) obj. 80859.7 iterations 149
Cbc0038I Pass  44: (26.80 seconds) suminf.   23.97533 (448) obj. 80859.7 iterations 66
Cbc0038I Pass  45: (26.90 seconds) suminf.   22.79628 (417) obj. 80859.7 iterations 268
Cbc0038I Pass  46: (26.96 seconds) suminf.   20.20025 (401) obj. 80855.1 iterations 167
Cbc0038I Pass  47: (27.07 seconds) suminf.   17.86925 (396) obj. 80854.1 iterations 322
Cbc0038I Pass  48: (27.10 seconds) suminf.   17.84629 (398) obj. 80855.2 iterations 92
Cbc0038I Pass  49: (27.16 seconds) suminf.   19.93094 (380) obj. 82002.6 iterations 171
Cbc0038I Pass  50: (27.23 seconds) suminf.   19.22197 (383) obj. 80855.2 iterations 195
Cbc0038I Pass  51: (27.34 seconds) suminf.   15.63090 (356) obj. 80855.2 iterations 296
Cbc0038I Pass  52: (27.39 seconds) suminf.   13.80219 (359) obj. 80855.2 iterations 146
Cbc0038I Pass  53: (27.47 seconds) suminf.   21.62778 (346) obj. 80842.7 iterations 243
Cbc0038I Pass  54: (27.50 seconds) suminf.   19.58010 (342) obj. 80843.1 iterations 43
Cbc0038I Pass  55: (27.56 seconds) suminf.   13.16461 (326) obj. 80842.9 iterations 189
Cbc0038I Pass  56: (27.58 seconds) suminf.   13.00949 (334) obj. 80842.9 iterations 76
Cbc0038I Pass  57: (27.66 seconds) suminf.   14.12421 (329) obj. 80843.9 iterations 251
Cbc0038I Pass  58: (27.69 seconds) suminf.   14.01869 (323) obj. 80843.8 iterations 94
Cbc0038I Pass  59: (27.73 seconds) suminf.   15.16517 (325) obj. 80843.6 iterations 133
Cbc0038I Pass  60: (27.75 seconds) suminf.   14.83542 (326) obj. 80843.9 iterations 36
Cbc0038I Pass  61: (27.81 seconds) suminf.   15.16371 (336) obj. 80844.4 iterations 180
Cbc0038I Pass  62: (28.30 seconds) suminf.   86.00264 (617) obj. 98930.1 iterations 1679
Cbc0038I Pass  63: (28.70 seconds) suminf.   52.88838 (518) obj. 101675 iterations 1226
Cbc0038I Pass  64: (28.74 seconds) suminf.   52.43568 (524) obj. 100889 iterations 91
Cbc0038I Pass  65: (28.87 seconds) suminf.   45.37386 (505) obj. 103302 iterations 288
Cbc0038I Pass  66: (28.89 seconds) suminf.   43.85625 (499) obj. 103302 iterations 48
Cbc0038I Pass  67: (29.05 seconds) suminf.   43.02771 (491) obj. 87551.9 iterations 463
Cbc0038I Pass  68: (29.11 seconds) suminf.   41.21955 (498) obj. 89133 iterations 158
Cbc0038I Pass  69: (29.20 seconds) suminf.   40.20453 (502) obj. 87006.3 iterations 236
Cbc0038I Pass  70: (29.24 seconds) suminf.   39.64575 (508) obj. 88644.3 iterations 100
Cbc0038I Pass  71: (29.30 seconds) suminf.   37.89500 (506) obj. 85217.6 iterations 154
Cbc0038I Pass  72: (29.32 seconds) suminf.   37.81710 (501) obj. 85250.6 iterations 38
Cbc0038I Pass  73: (29.41 seconds) suminf.   35.59543 (508) obj. 88561.1 iterations 194
Cbc0038I Pass  74: (29.43 seconds) suminf.   35.32006 (511) obj. 88543.2 iterations 40
Cbc0038I Pass  75: (29.56 seconds) suminf.   30.50364 (461) obj. 86517.6 iterations 329
Cbc0038I Pass  76: (29.58 seconds) suminf.   30.31139 (459) obj. 86625.7 iterations 15
Cbc0038I Pass  77: (29.68 seconds) suminf.   28.57676 (433) obj. 83205.7 iterations 270
Cbc0038I Pass  78: (29.69 seconds) suminf.   26.44606 (431) obj. 83205.7 iterations 24
Cbc0038I Pass  79: (29.72 seconds) suminf.   25.23780 (432) obj. 83205.6 iterations 51
Cbc0038I Pass  80: (29.81 seconds) suminf.   24.95159 (409) obj. 81242.4 iterations 215
Cbc0038I Pass  81: (29.84 seconds) suminf.   24.24708 (410) obj. 80709.9 iterations 57
Cbc0038I Pass  82: (29.89 seconds) suminf.   24.35878 (402) obj. 82313.6 iterations 110
Cbc0038I Pass  83: (29.91 seconds) suminf.   22.98517 (412) obj. 82313.6 iterations 33
Cbc0038I Pass  84: (29.99 seconds) suminf.   22.15993 (387) obj. 80710 iterations 198
Cbc0038I Pass  85: (30.01 seconds) suminf.   21.68644 (387) obj. 80709.9 iterations 22
Cbc0038I Pass  86: (30.13 seconds) suminf.   21.86398 (342) obj. 80767.7 iterations 315
Cbc0038I Pass  87: (30.19 seconds) suminf.   20.66850 (332) obj. 80757.7 iterations 149
Cbc0038I Pass  88: (30.24 seconds) suminf.   20.33342 (354) obj. 80734.5 iterations 134
Cbc0038I Pass  89: (30.25 seconds) suminf.   20.28028 (354) obj. 80734.5 iterations 16
Cbc0038I Pass  90: (30.32 seconds) suminf.   20.32822 (335) obj. 82288.4 iterations 198
Cbc0038I Pass  91: (30.34 seconds) suminf.   19.07049 (334) obj. 82288.3 iterations 9
Cbc0038I Pass  92: (30.41 seconds) suminf.   17.91916 (328) obj. 80732.7 iterations 223
Cbc0038I Pass  93: (30.43 seconds) suminf.   17.78686 (328) obj. 80732.6 iterations 7
Cbc0038I Pass  94: (30.48 seconds) suminf.   17.72229 (318) obj. 82288.5 iterations 161
Cbc0038I Pass  95: (30.50 seconds) suminf.   17.60246 (319) obj. 82288.4 iterations 5
Cbc0038I Pass  96: (30.56 seconds) suminf.   17.74540 (312) obj. 80199.1 iterations 164
Cbc0038I Pass  97: (30.57 seconds) suminf.   17.92205 (311) obj. 80198.5 iterations 8
Cbc0038I Pass  98: (30.63 seconds) suminf.   15.84922 (302) obj. 82278.5 iterations 135
Cbc0038I Pass  99: (30.64 seconds) suminf.   15.80510 (303) obj. 82278.5 iterations 7
Cbc0038I Pass 100: (30.96 seconds) suminf.   52.36047 (417) obj. 90514.3 iterations 1048
Cbc0038I No solution found this major pass
Cbc0038I Before mini branch and bound, 870 integers at bound fixed and 0 continuous
Cbc0038I Full problem 8363 rows 2454 columns, reduced to 4141 rows 1214 columns
Cbc0038I Mini branch and bound did not improve solution (37.25 seconds)
Cbc0038I After 37.25 seconds - Feasibility pump exiting - took 15.29 seconds
Cbc0031I 15 added rows had average density of 11
Cbc0013I At root node, 15 cuts changed objective from 61440 to 61440 in 10 passes
Cbc0014I Cut generator 0 (Probing) - 6 row cuts average 2.8 elements, 0 column cuts (0 active)  in 0.157 seconds - new frequency is 1
Cbc0014I Cut generator 1 (Gomory) - 5 row cuts average 37.8 elements, 0 column cuts (0 active)  in 1.360 seconds - new frequency is 1
Cbc0014I Cut generator 2 (Knapsack) - 16 row cuts average 12.5 elements, 0 column cuts (0 active)  in 0.031 seconds - new frequency is 1
Cbc0014I Cut generator 3 (Clique) - 0 row cuts average 0.0 elements, 0 column cuts (0 active)  in 0.023 seconds - new frequency is -100
Cbc0014I Cut generator 4 (MixedIntegerRounding2) - 0 row cuts average 0.0 elements, 0 column cuts (0 active)  in 0.032 seconds - new frequency is -100
Cbc0014I Cut generator 5 (FlowCover) - 0 row cuts average 0.0 elements, 0 column cuts (0 active)  in 0.026 seconds - new frequency is -100
Cbc0014I Cut generator 6 (TwoMirCuts) - 18 row cuts average 22.0 elements, 0 column cuts (0 active)  in 0.626 seconds - new frequency is -100
Cbc0010I After 0 nodes, 1 on tree, 1e+50 best solution, best possible 61440 (41.63 seconds)
Cbc0010I After 100 nodes, 20 on tree, 1e+50 best solution, best possible 61440 (211.59 seconds)
Cbc0010I After 200 nodes, 25 on tree, 1e+50 best solution, best possible 61440 (345.12 seconds)
Cbc0010I After 300 nodes, 20 on tree, 1e+50 best solution, best possible 61440 (442.84 seconds)
Cbc0010I After 400 nodes, 20 on tree, 1e+50 best solution, best possible 61440 (554.29 seconds)
Cbc0010I After 500 nodes, 38 on tree, 1e+50 best solution, best possible 61440 (631.80 seconds)
Cbc0010I After 600 nodes, 35 on tree, 1e+50 best solution, best possible 61440 (712.31 seconds)
Cbc0010I After 700 nodes, 45 on tree, 1e+50 best solution, best possible 61440 (792.38 seconds)
Cbc0010I After 800 nodes, 39 on tree, 1e+50 best solution, best possible 61440 (883.06 seconds)
Cbc0010I After 900 nodes, 47 on tree, 1e+50 best solution, best possible 61440 (948.04 seconds)
Cbc0010I After 1000 nodes, 47 on tree, 1e+50 best solution, best possible 61440 (1032.65 seconds)
Cbc0010I After 1100 nodes, 38 on tree, 1e+50 best solution, best possible 61440 (1129.83 seconds)
Cbc0010I After 1200 nodes, 37 on tree, 1e+50 best solution, best possible 61440 (1291.71 seconds)
Cbc0010I After 1300 nodes, 38 on tree, 1e+50 best solution, best possible 61440 (1391.62 seconds)
Cbc0010I After 1400 nodes, 27 on tree, 1e+50 best solution, best possible 61440 (1460.98 seconds)
Cbc0010I After 1500 nodes, 15 on tree, 1e+50 best solution, best possible 61440 (1573.42 seconds)
Cbc0010I After 1600 nodes, 37 on tree, 1e+50 best solution, best possible 61440 (1648.76 seconds)
Cbc0010I After 1700 nodes, 21 on tree, 1e+50 best solution, best possible 61440 (1703.86 seconds)
Cbc0010I After 1800 nodes, 30 on tree, 1e+50 best solution, best possible 61440 (1768.38 seconds)
Cbc0020I Exiting on maximum time
Cbc0005I Partial search - best objective 1e+50 (best possible 61440), took 2540183 iterations and 1857 nodes (1798.88 seconds)
Cbc0032I Strong branching done 18498 times (1280894 iterations), fathomed 197 nodes and fixed 939 variables
Cbc0035I Maximum depth 65, 0 variables fixed on reduced cost
Cuts at root node changed objective from 61440 to 61440
Probing was tried 317 times and created 30917 cuts of which 0 were active after adding rounds of cuts (1.835 seconds)
Gomory was tried 253 times and created 617 cuts of which 0 were active after adding rounds of cuts (4.076 seconds)
Knapsack was tried 253 times and created 1043 cuts of which 0 were active after adding rounds of cuts (0.672 seconds)
Clique was tried 10 times and created 0 cuts of which 0 were active after adding rounds of cuts (0.023 seconds)
MixedIntegerRounding2 was tried 10 times and created 0 cuts of which 0 were active after adding rounds of cuts (0.032 seconds)
FlowCover was tried 10 times and created 0 cuts of which 0 were active after adding rounds of cuts (0.026 seconds)
TwoMirCuts was tried 10 times and created 18 cuts of which 0 were active after adding rounds of cuts (0.626 seconds)
ZeroHalf was tried 1 times and created 0 cuts of which 0 were active after adding rounds of cuts (0.105 seconds)
ImplicationCuts was tried 25 times and created 47 cuts of which 0 were active after adding rounds of cuts (0.004 seconds)

Result - Stopped on time limit

No feasible solution found
Lower bound:                    61440.000
Enumerated nodes:               1857
Total iterations:               2540183
Time (CPU seconds):             1798.88
Time (Wallclock seconds):       1799.15

Total time (CPU seconds):       1798.98   (Wallclock seconds):       1799.33

